max_width = 37;
n_blocks = 27;
width = [12, 4, 4, 5, 3, 3, 3, 5, 3, 4, 3, 3, 3, 5, 3, 3, 4, 3, 4, 5, 3, 4, 3, 5, 3, 4, 3];
height = [37, 24, 22, 14, 21, 18, 17, 10, 14, 10, 13, 12, 11, 6, 9, 8, 6, 7, 5, 4, 6, 4, 5, 3, 4, 3, 3];
